c strEdges: 189  randomEdges: 441 
c degrees:  2  3 
c girth: 10 max: 8.032766  
c Hgirth mixed MAXCUT instance
c generated from an undirected graph
c to solve unweighted MaxCut
p cnf 140 1260
51 25 0
-51 -25 0
51 96 0
-51 -96 0
51 34 0
-51 -34 0
47 102 0
-47 -102 0
47 62 0
-47 -62 0
47 135 0
-47 -135 0
13 52 0
-13 -52 0
13 79 0
-13 -79 0
13 48 0
-13 -48 0
81 9 0
-81 -9 0
81 18 0
-81 -18 0
81 138 0
-81 -138 0
73 48 0
-73 -48 0
73 56 0
-73 -56 0
10 77 0
-10 -77 0
10 115 0
-10 -115 0
42 111 0
-42 -111 0
42 125 0
-42 -125 0
42 52 0
-42 -52 0
23 82 0
-23 -82 0
23 66 0
-23 -66 0
23 115 0
-23 -115 0
20 16 0
-20 -16 0
20 101 0
-20 -101 0
20 91 0
-20 -91 0
108 101 0
-108 -101 0
108 58 0
-108 -58 0
24 6 0
-24 -6 0
24 34 0
-24 -34 0
24 4 0
-24 -4 0
122 98 0
-122 -98 0
122 111 0
-122 -111 0
122 123 0
-122 -123 0
118 89 0
-118 -89 0
118 79 0
-118 -79 0
118 90 0
-118 -90 0
129 94 0
-129 -94 0
129 125 0
-129 -125 0
88 117 0
-88 -117 0
88 135 0
-88 -135 0
88 5 0
-88 -5 0
119 136 0
-119 -136 0
119 116 0
-119 -116 0
119 94 0
-119 -94 0
128 22 0
-128 -22 0
128 70 0
-128 -70 0
128 57 0
-128 -57 0
74 138 0
-74 -138 0
74 56 0
-74 -56 0
74 22 0
-74 -22 0
137 5 0
-137 -5 0
137 130 0
-137 -130 0
137 140 0
-137 -140 0
124 40 0
-124 -40 0
124 21 0
-124 -21 0
124 95 0
-124 -95 0
80 30 0
-80 -30 0
80 110 0
-80 -110 0
80 57 0
-80 -57 0
126 87 0
-126 -87 0
126 110 0
-126 -110 0
126 32 0
-126 -32 0
86 107 0
-86 -107 0
86 38 0
-86 -38 0
86 133 0
-86 -133 0
99 4 0
-99 -4 0
99 87 0
-99 -87 0
99 121 0
-99 -121 0
50 14 0
-50 -14 0
50 9 0
-50 -9 0
83 57 0
-83 -57 0
83 6 0
-83 -6 0
83 93 0
-83 -93 0
26 19 0
-26 -19 0
26 107 0
-26 -107 0
12 116 0
-12 -116 0
12 8 0
-12 -8 0
29 79 0
-29 -79 0
29 8 0
-29 -8 0
85 93 0
-85 -93 0
85 117 0
-85 -117 0
85 132 0
-85 -132 0
68 21 0
-68 -21 0
68 32 0
-68 -32 0
68 17 0
-68 -17 0
131 75 0
-131 -75 0
131 38 0
-131 -38 0
131 103 0
-131 -103 0
36 38 0
-36 -38 0
36 25 0
-36 -25 0
55 135 0
-55 -135 0
55 136 0
-55 -136 0
54 109 0
-54 -109 0
54 103 0
-54 -103 0
54 59 0
-54 -59 0
105 140 0
-105 -140 0
105 9 0
-105 -9 0
127 110 0
-127 -110 0
127 16 0
-127 -16 0
127 136 0
-127 -136 0
120 18 0
-120 -18 0
120 98 0
-120 -98 0
120 16 0
-120 -16 0
3 90 0
-3 -90 0
3 104 0
-3 -104 0
33 78 0
-33 -78 0
33 102 0
-33 -102 0
33 133 0
-33 -133 0
72 121 0
-72 -121 0
72 138 0
-72 -138 0
39 91 0
-39 -91 0
39 19 0
-39 -19 0
49 96 0
-49 -96 0
49 77 0
-49 -77 0
49 101 0
-49 -101 0
112 95 0
-112 -95 0
112 6 0
-112 -6 0
112 139 0
-112 -139 0
7 62 0
-7 -62 0
7 71 0
-7 -71 0
7 95 0
-7 -95 0
27 43 0
-27 -43 0
27 30 0
-27 -30 0
27 66 0
-27 -66 0
134 58 0
-134 -58 0
134 93 0
-134 -93 0
134 89 0
-134 -89 0
63 56 0
-63 -56 0
63 62 0
-63 -62 0
92 34 0
-92 -34 0
92 52 0
-92 -52 0
92 140 0
-92 -140 0
11 70 0
-11 -70 0
11 60 0
-11 -60 0
11 65 0
-11 -65 0
67 123 0
-67 -123 0
67 82 0
-67 -82 0
67 14 0
-67 -14 0
37 66 0
-37 -66 0
37 132 0
-37 -132 0
114 44 0
-114 -44 0
114 53 0
-114 -53 0
114 116 0
-114 -116 0
84 71 0
-84 -71 0
84 123 0
-84 -123 0
84 75 0
-84 -75 0
41 60 0
-41 -60 0
41 44 0
-41 -44 0
41 25 0
-41 -25 0
69 53 0
-69 -53 0
69 43 0
-69 -43 0
69 113 0
-69 -113 0
97 104 0
-97 -104 0
97 65 0
-97 -65 0
97 91 0
-97 -91 0
2 17 0
-2 -17 0
2 96 0
-2 -96 0
45 133 0
-45 -133 0
45 30 0
-45 -30 0
35 130 0
-35 -130 0
35 40 0
-35 -40 0
35 109 0
-35 -109 0
15 32 0
-15 -32 0
15 78 0
-15 -78 0
15 89 0
-15 -89 0
76 115 0
-76 -115 0
76 109 0
-76 -109 0
76 48 0
-76 -48 0
64 103 0
-64 -103 0
64 94 0
-64 -94 0
64 17 0
-64 -17 0
100 8 0
-100 -8 0
100 107 0
-100 -107 0
100 121 0
-100 -121 0
31 113 0
-31 -113 0
31 90 0
-31 -90 0
31 14 0
-31 -14 0
61 132 0
-61 -132 0
61 19 0
-61 -19 0
61 21 0
-61 -21 0
46 139 0
-46 -139 0
46 113 0
-46 -113 0
1 125 0
-1 -125 0
1 22 0
-1 -22 0
106 65 0
-106 -65 0
106 59 0
-106 -59 0
106 102 0
-106 -102 0
28 59 0
-28 -59 0
28 87 0
-28 -87 0
7 104 0
-7 -104 0
69 77 0
-69 -77 0
111 109 0
-111 -109 0
13 110 0
-13 -110 0
90 133 0
-90 -133 0
28 21 0
-28 -21 0
6 94 0
-6 -94 0
10 104 0
-10 -104 0
36 30 0
-36 -30 0
47 70 0
-47 -70 0
40 30 0
-40 -30 0
40 71 0
-40 -71 0
129 61 0
-129 -61 0
12 27 0
-12 -27 0
29 48 0
-29 -48 0
10 4 0
-10 -4 0
20 35 0
-20 -35 0
29 123 0
-29 -123 0
85 53 0
-85 -53 0
11 38 0
-11 -38 0
22 121 0
-22 -121 0
138 60 0
-138 -60 0
110 65 0
-110 -65 0
128 109 0
-128 -109 0
41 116 0
-41 -116 0
72 66 0
-72 -66 0
80 61 0
-80 -61 0
112 19 0
-112 -19 0
55 18 0
-55 -18 0
9 65 0
-9 -65 0
83 49 0
-83 -49 0
106 139 0
-106 -139 0
42 113 0
-42 -113 0
48 138 0
-48 -138 0
23 110 0
-23 -110 0
112 87 0
-112 -87 0
83 130 0
-83 -130 0
134 71 0
-134 -71 0
3 28 0
-3 -28 0
108 131 0
-108 -131 0
12 33 0
-12 -33 0
53 17 0
-53 -17 0
126 93 0
-126 -93 0
29 65 0
-29 -65 0
126 123 0
-126 -123 0
118 1 0
-118 -1 0
120 140 0
-120 -140 0
14 44 0
-14 -44 0
68 16 0
-68 -16 0
42 137 0
-42 -137 0
12 67 0
-12 -67 0
80 91 0
-80 -91 0
78 32 0
-78 -32 0
51 66 0
-51 -66 0
15 75 0
-15 -75 0
95 71 0
-95 -71 0
64 8 0
-64 -8 0
88 119 0
-88 -119 0
73 112 0
-73 -112 0
55 107 0
-55 -107 0
5 110 0
-5 -110 0
68 77 0
-68 -77 0
100 109 0
-100 -109 0
100 140 0
-100 -140 0
119 123 0
-119 -123 0
138 53 0
-138 -53 0
61 32 0
-61 -32 0
46 56 0
-46 -56 0
128 68 0
-128 -68 0
40 107 0
-40 -107 0
134 64 0
-134 -64 0
21 62 0
-21 -62 0
83 103 0
-83 -103 0
13 4 0
-13 -4 0
127 78 0
-127 -78 0
116 96 0
-116 -96 0
100 65 0
-100 -65 0
82 94 0
-82 -94 0
37 140 0
-37 -140 0
78 59 0
-78 -59 0
72 53 0
-72 -53 0
4 95 0
-4 -95 0
36 35 0
-36 -35 0
20 79 0
-20 -79 0
105 4 0
-105 -4 0
137 114 0
-137 -114 0
12 58 0
-12 -58 0
23 64 0
-23 -64 0
38 130 0
-38 -130 0
55 139 0
-55 -139 0
40 121 0
-40 -121 0
39 31 0
-39 -31 0
118 54 0
-118 -54 0
68 79 0
-68 -79 0
35 138 0
-35 -138 0
69 125 0
-69 -125 0
99 76 0
-99 -76 0
98 30 0
-98 -30 0
50 16 0
-50 -16 0
92 22 0
-92 -22 0
76 65 0
-76 -65 0
116 130 0
-116 -130 0
3 123 0
-3 -123 0
13 11 0
-13 -11 0
98 4 0
-98 -4 0
27 61 0
-27 -61 0
37 69 0
-37 -69 0
112 7 0
-112 -7 0
15 34 0
-15 -34 0
131 59 0
-131 -59 0
40 38 0
-40 -38 0
24 40 0
-24 -40 0
26 67 0
-26 -67 0
47 32 0
-47 -32 0
114 132 0
-114 -132 0
41 5 0
-41 -5 0
37 96 0
-37 -96 0
3 76 0
-3 -76 0
69 28 0
-69 -28 0
131 14 0
-131 -14 0
50 61 0
-50 -61 0
64 140 0
-64 -140 0
69 56 0
-69 -56 0
135 43 0
-135 -43 0
126 11 0
-126 -11 0
13 61 0
-13 -61 0
78 60 0
-78 -60 0
77 40 0
-77 -40 0
105 57 0
-105 -57 0
37 100 0
-37 -100 0
120 133 0
-120 -133 0
88 12 0
-88 -12 0
88 100 0
-88 -100 0
28 110 0
-28 -110 0
72 116 0
-72 -116 0
7 107 0
-7 -107 0
105 34 0
-105 -34 0
54 31 0
-54 -31 0
112 16 0
-112 -16 0
29 3 0
-29 -3 0
124 65 0
-124 -65 0
62 65 0
-62 -65 0
81 136 0
-81 -136 0
45 132 0
-45 -132 0
36 19 0
-36 -19 0
26 84 0
-26 -84 0
92 9 0
-92 -9 0
63 52 0
-63 -52 0
81 37 0
-81 -37 0
127 93 0
-127 -93 0
129 63 0
-129 -63 0
47 46 0
-47 -46 0
57 104 0
-57 -104 0
101 34 0
-101 -34 0
129 40 0
-129 -40 0
38 59 0
-38 -59 0
48 56 0
-48 -56 0
2 66 0
-2 -66 0
31 48 0
-31 -48 0
81 56 0
-81 -56 0
108 44 0
-108 -44 0
19 75 0
-19 -75 0
81 6 0
-81 -6 0
11 59 0
-11 -59 0
122 104 0
-122 -104 0
63 6 0
-63 -6 0
129 89 0
-129 -89 0
101 59 0
-101 -59 0
42 64 0
-42 -64 0
119 76 0
-119 -76 0
88 14 0
-88 -14 0
16 90 0
-16 -90 0
69 21 0
-69 -21 0
51 84 0
-51 -84 0
85 113 0
-85 -113 0
81 122 0
-81 -122 0
37 97 0
-37 -97 0
114 136 0
-114 -136 0
50 100 0
-50 -100 0
128 120 0
-128 -120 0
33 92 0
-33 -92 0
51 15 0
-51 -15 0
16 75 0
-16 -75 0
20 90 0
-20 -90 0
98 103 0
-98 -103 0
77 70 0
-77 -70 0
41 115 0
-41 -115 0
26 22 0
-26 -22 0
36 45 0
-36 -45 0
4 71 0
-4 -71 0
114 59 0
-114 -59 0
111 19 0
-111 -19 0
26 29 0
-26 -29 0
7 78 0
-7 -78 0
23 88 0
-23 -88 0
107 56 0
-107 -56 0
47 68 0
-47 -68 0
24 101 0
-24 -101 0
116 62 0
-116 -62 0
119 84 0
-119 -84 0
23 83 0
-23 -83 0
47 22 0
-47 -22 0
37 115 0
-37 -115 0
9 62 0
-9 -62 0
78 103 0
-78 -103 0
63 102 0
-63 -102 0
99 11 0
-99 -11 0
119 37 0
-119 -37 0
37 136 0
-37 -136 0
12 5 0
-12 -5 0
134 106 0
-134 -106 0
129 32 0
-129 -32 0
129 2 0
-129 -2 0
12 112 0
-12 -112 0
79 91 0
-79 -91 0
127 9 0
-127 -9 0
109 66 0
-109 -66 0
52 130 0
-52 -130 0
117 56 0
-117 -56 0
117 21 0
-117 -21 0
122 16 0
-122 -16 0
96 139 0
-96 -139 0
122 62 0
-122 -62 0
13 17 0
-13 -17 0
39 5 0
-39 -5 0
36 32 0
-36 -32 0
105 107 0
-105 -107 0
47 59 0
-47 -59 0
42 103 0
-42 -103 0
122 21 0
-122 -21 0
10 67 0
-10 -67 0
99 22 0
-99 -22 0
21 60 0
-21 -60 0
126 33 0
-126 -33 0
44 130 0
-44 -130 0
40 93 0
-40 -93 0
41 48 0
-41 -48 0
99 36 0
-99 -36 0
15 59 0
-15 -59 0
92 107 0
-92 -107 0
35 60 0
-35 -60 0
42 90 0
-42 -90 0
100 40 0
-100 -40 0
28 62 0
-28 -62 0
88 50 0
-88 -50 0
137 132 0
-137 -132 0
49 76 0
-49 -76 0
86 63 0
-86 -63 0
13 139 0
-13 -139 0
128 33 0
-128 -33 0
12 34 0
-12 -34 0
2 125 0
-2 -125 0
51 4 0
-51 -4 0
54 5 0
-54 -5 0
79 95 0
-79 -95 0
119 15 0
-119 -15 0
67 125 0
-67 -125 0
108 72 0
-108 -72 0
33 103 0
-33 -103 0
31 60 0
-31 -60 0
83 11 0
-83 -11 0
80 46 0
-80 -46 0
39 130 0
-39 -130 0
90 65 0
-90 -65 0
45 61 0
-45 -61 0
68 76 0
-68 -76 0
80 6 0
-80 -6 0
64 28 0
-64 -28 0
48 57 0
-48 -57 0
123 115 0
-123 -115 0
124 106 0
-124 -106 0
122 44 0
-122 -44 0
114 41 0
-114 -41 0
98 89 0
-98 -89 0
56 60 0
-56 -60 0
2 100 0
-2 -100 0
85 15 0
-85 -15 0
64 117 0
-64 -117 0
47 124 0
-47 -124 0
112 61 0
-112 -61 0
120 109 0
-120 -109 0
140 65 0
-140 -65 0
30 34 0
-30 -34 0
13 98 0
-13 -98 0
90 66 0
-90 -66 0
58 70 0
-58 -70 0
22 79 0
-22 -79 0
9 104 0
-9 -104 0
33 107 0
-33 -107 0
73 40 0
-73 -40 0
25 101 0
-25 -101 0
45 121 0
-45 -121 0
6 75 0
-6 -75 0
86 65 0
-86 -65 0
114 6 0
-114 -6 0
33 53 0
-33 -53 0
136 8 0
-136 -8 0
99 90 0
-99 -90 0
118 76 0
-118 -76 0
48 116 0
-48 -116 0
64 121 0
-64 -121 0
84 17 0
-84 -17 0
87 66 0
-87 -66 0
68 91 0
-68 -91 0
137 11 0
-137 -11 0
44 139 0
-44 -139 0
61 101 0
-61 -101 0
47 120 0
-47 -120 0
79 8 0
-79 -8 0
124 113 0
-124 -113 0
23 31 0
-23 -31 0
23 34 0
-23 -34 0
119 89 0
-119 -89 0
97 9 0
-97 -9 0
33 72 0
-33 -72 0
87 125 0
-87 -125 0
97 60 0
-97 -60 0
131 28 0
-131 -28 0
92 21 0
-92 -21 0
51 118 0
-51 -118 0
1 116 0
-1 -116 0
8 132 0
-8 -132 0
124 66 0
-124 -66 0
51 7 0
-51 -7 0
86 104 0
-86 -104 0
42 23 0
-42 -23 0
87 56 0
-87 -56 0
83 71 0
-83 -71 0
88 78 0
-88 -78 0
13 40 0
-13 -40 0
24 136 0
-24 -136 0
105 96 0
-105 -96 0
68 6 0
-68 -6 0
74 87 0
-74 -87 0
51 123 0
-51 -123 0
46 87 0
-46 -87 0
54 72 0
-54 -72 0
51 71 0
-51 -71 0
79 104 0
-79 -104 0
55 109 0
-55 -109 0
85 46 0
-85 -46 0
114 32 0
-114 -32 0
134 117 0
-134 -117 0
73 67 0
-73 -67 0
21 56 0
-21 -56 0
83 55 0
-83 -55 0
87 70 0
-87 -70 0
77 116 0
-77 -116 0
140 95 0
-140 -95 0
109 18 0
-109 -18 0
26 18 0
-26 -18 0
139 125 0
-139 -125 0
77 91 0
-77 -91 0
119 72 0
-119 -72 0
13 35 0
-13 -35 0
24 140 0
-24 -140 0
119 49 0
-119 -49 0
68 37 0
-68 -37 0
74 115 0
-74 -115 0
66 130 0
-66 -130 0
29 75 0
-29 -75 0
84 38 0
-84 -38 0
95 44 0
-95 -44 0
79 71 0
-79 -71 0
105 89 0
-105 -89 0
42 40 0
-42 -40 0
28 34 0
-28 -34 0
36 21 0
-36 -21 0
39 110 0
-39 -110 0
3 5 0
-3 -5 0
45 40 0
-45 -40 0
81 15 0
-81 -15 0
72 111 0
-72 -111 0
101 21 0
-101 -21 0
122 75 0
-122 -75 0
91 132 0
-91 -132 0
55 134 0
-55 -134 0
97 76 0
-97 -76 0
42 94 0
-42 -94 0
29 90 0
-29 -90 0
3 30 0
-3 -30 0
49 94 0
-49 -94 0
124 9 0
-124 -9 0
126 116 0
-126 -116 0
98 43 0
-98 -43 0
105 53 0
-105 -53 0
87 17 0
-87 -17 0
92 4 0
-92 -4 0
120 59 0
-120 -59 0
76 16 0
-76 -16 0
111 32 0
-111 -32 0
106 28 0
-106 -28 0
58 115 0
-58 -115 0
128 99 0
-128 -99 0
45 4 0
-45 -4 0
76 61 0
-76 -61 0
48 117 0
-48 -117 0
72 107 0
-72 -107 0
47 54 0
-47 -54 0
51 95 0
-51 -95 0
97 30 0
-97 -30 0
85 30 0
-85 -30 0
137 34 0
-137 -34 0
8 65 0
-8 -65 0
27 14 0
-27 -14 0
107 113 0
-107 -113 0
4 18 0
-4 -18 0
86 116 0
-86 -116 0
108 96 0
-108 -96 0
88 67 0
-88 -67 0
45 94 0
-45 -94 0
101 138 0
-101 -138 0
1 52 0
-1 -52 0
137 53 0
-137 -53 0
47 83 0
-47 -83 0
94 5 0
-94 -5 0
127 31 0
-127 -31 0
100 44 0
-100 -44 0
73 77 0
-73 -77 0
40 104 0
-40 -104 0
3 45 0
-3 -45 0
119 133 0
-119 -133 0
136 121 0
-136 -121 0
33 84 0
-33 -84 0
17 8 0
-17 -8 0
82 17 0
-82 -17 0
140 132 0
-140 -132 0
47 50 0
-47 -50 0
14 18 0
-14 -18 0
31 28 0
-31 -28 0
131 71 0
-131 -71 0
74 21 0
-74 -21 0
13 135 0
-13 -135 0
112 31 0
-112 -31 0
119 90 0
-119 -90 0
94 19 0
-94 -19 0
68 45 0
-68 -45 0
20 89 0
-20 -89 0
127 32 0
-127 -32 0
51 5 0
-51 -5 0
26 4 0
-26 -4 0
